NAME: kroA100
TYPE: TSP
COMMENT: 100-city problem A (Krolak/Felts/Nelson)
DIMENSION: 100
EDGE_WEIGHT_TYPE : EUC_2D
NODE_COORD_SECTION
1 3.40000e+03 2.50000e+03
2 3.50000e+03 2.50000e+03
3 3.60000e+03 2.40000e+03
4 3.70000e+03 2.50000e+03
5 3.70000e+03 2.40000e+03
6 3.60000e+03 2.50000e+03
7 3.40000e+03 2.40000e+03
8 3.30000e+03 2.40000e+03
9 3.30000e+03 2.30000e+03
10 3.40000e+03 2.30000e+03
11 3.50000e+03 2.30000e+03
12 3.40000e+03 2.20000e+03
13 3.40000e+03 2.10000e+03
14 3.70000e+03 1.90000e+03
15 3.50000e+03 2.10000e+03
16 3.50000e+03 2.20000e+03
17 3.60000e+03 2.10000e+03
18 3.70000e+03 2.10000e+03
19 3.60000e+03 2.20000e+03
20 3.60000e+03 2.30000e+03
21 3.70000e+03 2.20000e+03
22 3.80000e+03 2.10000e+03
23 3.90000e+03 2.20000e+03
24 4.00000e+03 2.10000e+03
25 3.90000e+03 2.10000e+03
26 3.80000e+03 2.20000e+03
27 3.80000e+03 2.30000e+03
28 3.70000e+03 2.30000e+03
29 3.80000e+03 2.40000e+03
30 3.90000e+03 2.40000e+03
31 4.00000e+03 2.40000e+03
32 3.90000e+03 2.30000e+03
33 4.00000e+03 2.30000e+03
34 4.10000e+03 2.30000e+03
35 4.00000e+03 2.20000e+03
36 4.10000e+03 2.10000e+03
37 4.10000e+03 2.20000e+03
38 4.20000e+03 2.10000e+03
39 4.30000e+03 2.20000e+03
40 4.40000e+03 2.10000e+03
41 4.30000e+03 2.10000e+03
42 4.20000e+03 2.20000e+03
43 4.20000e+03 2.30000e+03
44 4.20000e+03 2.40000e+03
45 4.30000e+03 2.30000e+03
46 4.40000e+03 2.30000e+03
47 4.50000e+03 2.20000e+03
48 4.40000e+03 2.20000e+03
49 4.50000e+03 2.10000e+03
50 4.60000e+03 2.10000e+03
51 4.60000e+03 2.20000e+03
52 4.70000e+03 2.30000e+03
53 4.60000e+03 2.30000e+03
54 4.70000e+03 2.20000e+03
55 4.80000e+03 2.30000e+03
56 4.90000e+03 2.30000e+03
57 5.00000e+03 2.30000e+03
58 4.90000e+03 2.20000e+03
59 4.80000e+03 2.20000e+03
60 4.80000e+03 2.10000e+03
61 4.90000e+03 2.10000e+03
62 5.00000e+03 2.10000e+03
63 5.00000e+03 2.20000e+03
64 5.10000e+03 2.10000e+03
65 5.10000e+03 2.20000e+03
66 5.20000e+03 2.10000e+03
67 5.30000e+03 2.20000e+03
68 5.40000e+03 2.10000e+03
69 5.30000e+03 2.10000e+03
70 5.20000e+03 2.20000e+03
71 5.20000e+03 2.30000e+03
72 5.10000e+03 2.30000e+03
73 5.20000e+03 2.40000e+03
74 5.30000e+03 2.30000e+03
75 5.40000e+03 2.30000e+03
76 5.50000e+03 2.20000e+03
77 5.40000e+03 2.20000e+03
78 5.50000e+03 2.10000e+03
79 5.60000e+03 2.10000e+03
80 5.70000e+03 2.10000e+03
81 5.60000e+03 2.20000e+03
82 5.70000e+03 2.30000e+03
83 5.60000e+03 2.30000e+03
84 5.70000e+03 2.20000e+03
85 5.80000e+03 2.30000e+03
86 5.90000e+03 2.20000e+03
87 5.80000e+03 2.20000e+03
88 5.80000e+03 2.10000e+03
89 5.90000e+03 2.10000e+03
90 6.00000e+03 2.10000e+03
91 6.00000e+03 2.20000e+03
92 6.10000e+03 2.10000e+03
93 6.10000e+03 2.20000e+03
94 6.20000e+03 2.10000e+03
95 6.30000e+03 2.20000e+03
96 6.40000e+03 2.10000e+03
97 6.30000e+03 2.10000e+03
98 6.20000e+03 2.20000e+03
99 6.20000e+03 2.30000e+03
100 6.30000e+03 2.40000e+03
EOF
